
Log started (V11.0.0) Mon May 26 23:04:20 2008

Tried aggregator 1 time.
Reduced MIP has 550 rows, 25001 columns, and 50050 nonzeros.
Presolve time =    0.19 sec.
Clique table members: 500.
MIP emphasis: balance optimality and feasibility.
MIP search method: dynamic search.
Parallel mode: none, using 1 thread.
Root relaxation solution time =    2.25 sec.

        Nodes                                         Cuts/
   Node  Left     Objective  IInf  Best Integer     Best Node    ItCnt     Gap

*     0+    0                        30329.0000      509.3200     1111   98.32%
*     0+    0                          596.0000      509.3200     1111   14.54%
      0     0      510.0000    94      596.0000      Fract: 8     1129   14.43%
*     0+    0                          583.0000      510.0000     1129   12.52%
      0     0      510.0000    98      583.0000      510.0000     1144   12.52%
*     0+    0                          575.0000      510.0000     1144   11.30%
      0     0      510.0000    99      575.0000     Covers: 2     1159   11.30%
*     0+    0                          570.0000      510.0000     1159   10.53%
*     0+    0                          567.0000      510.0000     1159   10.05%
*     0+    0                          563.0000      510.0000     1159    9.41%
*     0+    0                          562.0000      510.0000     1159    9.25%
*     0+    0                          546.0000      510.0000     1159    6.59%
      0     2      510.0000    99      546.0000      510.0000     1159    6.59%
*    10+   10                          545.0000      510.0000     1329    6.42%
*    30+   30                          544.0000      510.0000     1799    6.25%
*    80+   80                          543.0000      510.0000     4118    6.08%
*    90+   90                          541.0000      510.0000     4840    5.73%
*   100+  100                          540.0000      510.0000     5660    5.56%
    100   102      510.0000    88      540.0000      510.0000     5660    5.56%
*   110+  110                          539.0000      510.0000     6515    5.38%
*   120+  120                          538.0000      510.0000     7339    5.20%
*   130+  130                          536.0000      510.0000     8430    4.85%
*   140+  140                          534.0000      510.0000    10178    4.49%
*   150+  150                          532.0000      510.0000    14235    4.14%
    200   201      511.0000    78      532.0000      510.0000    24746    4.14%
*   210+  209                          531.0000      510.0000    25487    3.95%
*   220+  219                          529.0000      510.0000    26482    3.59%
*   230+  229                          528.0000      510.0000    28337    3.41%
*   250+  249                          527.0000      510.0000    32281    3.23%
*   290+  289                          526.0000      510.0000    40923    3.04%
    300   301      511.0000    94      526.0000      510.0000    44168    3.04%
*   360+  359                          525.0000      510.0000    74401    2.86%
*   400+  396                          524.0000      510.0000    97673    2.67%
    400   398      511.0000    90      524.0000      510.0000    97673    2.67%
*   420+  414                          523.0000      510.0000   110990    2.49%
*   430+  424                          522.0000      510.0000   116819    2.30%
*   440+  434                          521.0000      510.0000   125007    2.11%
    500   488      512.0000    88      521.0000      510.0000   163952    2.11%
*   552+  355                          520.0000      510.0000   210919    1.92%
    600   367      510.0000    90      520.0000      510.0000   212584    1.92%
    700   394      510.0000    93      520.0000      510.0000   218988    1.92%
    800   418      511.0000    86      520.0000      510.0000   229179    1.92%
    900   444      516.0000    89      520.0000      510.0000   246579    1.92%
   1000   468      516.0000    93      520.0000      510.0000   276841    1.92%
Elapsed time = 385.33 sec. (tree size =  6.73 MB, solutions = 30)
   1100   541      517.0000    89      520.0000      510.0000   318416    1.92%
   1200   633      518.0000    71      520.0000      510.0000   366059    1.92%
   1300   732      519.0000    79      520.0000      510.0000   409023    1.92%
   1400   832      519.0000    76      520.0000      510.0000   441004    1.92%
   1500   925      511.0000    85      520.0000      510.0000   510846    1.92%
   1600  1025      511.0000    93      520.0000      510.0000   523972    1.92%
   1700  1125      511.0000    92      520.0000      510.0000   556104    1.92%
   1800  1223      512.0000    86      520.0000      510.0000   591406    1.92%
   1900  1317      513.0000    79      520.0000      510.0000   635256    1.92%
   2000  1413      514.0000    88      520.0000      510.0000   674445    1.92%
Elapsed time = 860.58 sec. (tree size = 21.90 MB, solutions = 30)
   2100  1511      515.0000    84      520.0000      510.0000   721311    1.92%
   2200  1611      515.0000    86      520.0000      510.0000   737054    1.92%
   2300  1703      516.0000    80      520.0000      510.0000   821845    1.92%
   2400  1797      517.0000    79      520.0000      510.0000   861008    1.92%
   2500  1893      517.0000    82      520.0000      510.0000   873170    1.92%
   2600  1988      519.0000    71      520.0000      510.0000   879542    1.92%
   2700  2084      510.0000    95      520.0000      510.0000   910067    1.92%
   2800  2184      510.0000    90      520.0000      510.0000   921773    1.92%
   2900  2283      510.0000    86      520.0000      510.0000   935293    1.92%
   3000  2380      514.0000    71      520.0000      510.0000   942526    1.92%
Elapsed time = 1194.51 sec. (tree size = 39.33 MB, solutions = 30)
   3100  2480      517.0000    74      520.0000      510.0000   954010    1.92%
   3200  2579      511.0000    90      520.0000      510.0000   967998    1.92%
   3300  2678      518.0000    69      520.0000      510.0000   986676    1.92%
   3400  2777      511.0000    90      520.0000      510.0000   992488    1.92%
   3500  2877      511.0000    89      520.0000      510.0000   999846    1.92%
   3600  2976      511.0000    91      520.0000      510.0000  1013749    1.92%
   3700  3076      511.0000    87      520.0000      510.0000  1024626    1.92%
   3800  3175      511.0000    85      520.0000      510.0000  1037963    1.92%
   3900  3275      518.0000    71      520.0000      510.0000  1062362    1.92%
   4000  3374      511.0000    89      520.0000      510.0000  1074013    1.92%
Elapsed time = 1456.31 sec. (tree size = 61.68 MB, solutions = 30)
   4100  3474      511.0000    94      520.0000      510.0000  1116720    1.92%
   4200  3574      510.0000    88      520.0000      510.0000  1162326    1.92%
   4300  3673      519.0000    47      520.0000      510.0000  1207898    1.92%
   4400  3773      510.0000    91      520.0000      510.0000  1261675    1.92%
   4500  3863      510.0000    91      520.0000      510.0000  1386831    1.92%
   4600  3961      510.0000    95      520.0000      510.0000  1452531    1.92%
   4700  4060      511.0000    90      520.0000      510.0000  1518726    1.92%
   4800  4159      511.0000    88      520.0000      510.0000  1547519    1.92%
   4900  4259      516.0000    79      520.0000      510.0000  1561910    1.92%
   5000  4359      510.0000    89      520.0000      510.0000  1604894    1.92%
Elapsed time = 2010.59 sec. (tree size = 85.32 MB, solutions = 30)
   5100  4458      519.0000    57      520.0000      510.0000  1621751    1.92%
   5200  4556      511.0000    85      520.0000      510.0000  1658522    1.92%
   5300  4656      511.0000    79      520.0000      510.0000  1697360    1.92%
   5400  4755      511.0000    80      520.0000      510.0000  1738683    1.92%
   5500  4855      511.0000    82      520.0000      510.0000  1775801    1.92%
   5600  4955      514.0000    66      520.0000      510.0000  1841748    1.92%
   5700  5055      515.0000    83      520.0000      510.0000  1868860    1.92%
   5800  5155      510.0000   101      520.0000      510.0000  1902887    1.92%
   5900  5254      512.0000    82      520.0000      510.0000  1936267    1.92%
   6000  5353      510.0000    90      520.0000      510.0000  2002707    1.92%
Elapsed time = 2486.22 sec. (tree size = 111.20 MB, solutions = 30)
   6100  5445      510.0000    92      520.0000      510.0000  2139969    1.92%
   6200  5540      510.0000    92      520.0000      510.0000  2224957    1.92%
   6300  5640      511.0000    89      520.0000      510.0000  2254452    1.92%
   6400  5739      511.0000    86      520.0000      510.0000  2263183    1.92%
   6500  5839      511.0000    81      520.0000      510.0000  2324671    1.92%
   6600  5938      511.0000    89      520.0000      510.0000  2388371    1.92%
Began writing nodes to disk (directory ./cpxa04064 created)
   6700  6038      511.0000    97      520.0000      510.0000  2450428    1.92%
   6800  6137      511.0000    77      520.0000      510.0000  2468565    1.92%
   6900  6237      511.0000    84      520.0000      510.0000  2537407    1.92%
*  6951+ 5875                          519.0000      510.0000  2584458    1.73%
   7000  5925      511.0000    90      519.0000      510.0000  2590334    1.73%
Elapsed time = 3184.78 sec. (tree size = 130.62 MB, solutions = 31)
Nodefile size =  3.28 MB (2.14 MB after compression)
   7100  6025      511.0000    92      519.0000      510.0000  2620712    1.73%
   7200  6125      514.0000    77      519.0000      510.0000  2634555    1.73%
   7300  6225      514.0000    81      519.0000      510.0000  2641123    1.73%
   7400  6323      510.0000    96      519.0000      510.0000  2679358    1.73%
   7500  6416      511.0000    95      519.0000      510.0000  2765416    1.73%
   7600  6514      511.0000    89      519.0000      510.0000  2790971    1.73%
   7700  6614      511.0000    93      519.0000      510.0000  2830338    1.73%
   7800  6713      511.0000    88      519.0000      510.0000  2889050    1.73%
   7900  6813      511.0000    90      519.0000      510.0000  2918837    1.73%
   8000  6912      511.0000    89      519.0000      510.0000  2940990    1.73%
Elapsed time = 3655.53 sec. (tree size = 159.64 MB, solutions = 31)
Nodefile size = 32.56 MB (22.51 MB after compression)
   8100  7012      511.0000    91      519.0000      510.0000  2990930    1.73%
   8200  7111      511.0000    91      519.0000      510.0000  3034999    1.73%
   8300  7211      512.0000    76      519.0000      510.0000  3053727    1.73%
   8400  7310      511.0000    79      519.0000      510.0000  3067921    1.73%
   8500  7410      511.0000    83      519.0000      510.0000  3123454    1.73%
   8600  7509      516.0000    53      519.0000      510.0000  3147398    1.73%
   8700  7609      516.0000    80      519.0000      510.0000  3158780    1.73%
   8800  7708      511.0000    97      519.0000      510.0000  3183258    1.73%
   8900  7808      516.0000    58      519.0000      510.0000  3216986    1.73%
   9000  7907      512.0000    80      519.0000      510.0000  3226907    1.73%
Elapsed time = 4076.38 sec. (tree size = 190.77 MB, solutions = 31)
Nodefile size = 62.83 MB (44.70 MB after compression)
   9100  8007      514.0000    69      519.0000      510.0000  3261160    1.73%
   9200  8106      511.0000    84      519.0000      510.0000  3267951    1.73%
   9300  8206      511.0000    87      519.0000      510.0000  3329648    1.73%
   9400  8305      511.0000    88      519.0000      510.0000  3402259    1.73%
   9500  8405      511.0000    85      519.0000      510.0000  3469361    1.73%
   9600  8504      511.0000    88      519.0000      510.0000  3530096    1.73%
   9700  8604      511.0000    85      519.0000      510.0000  3564760    1.73%
   9800  8703      511.0000    91      519.0000      510.0000  3620861    1.73%
   9900  8803      511.0000    93      519.0000      510.0000  3637683    1.73%
  10000  8901      511.0000    94      519.0000      510.0000  3679039    1.73%
Elapsed time = 4697.78 sec. (tree size = 223.31 MB, solutions = 31)
Nodefile size = 96.17 MB (69.19 MB after compression)
  10100  9001      511.0000    95      519.0000      510.0000  3752571    1.73%
  10200  9100      511.0000    90      519.0000      510.0000  3825578    1.73%
  10300  9200      514.0000    69      519.0000      510.0000  3842214    1.73%
  10400  9300      510.0000   115      519.0000      510.0000  3870031    1.73%
  10500  9400      510.0000    94      519.0000      510.0000  3928737    1.73%
  10600  9498      511.0000    89      519.0000      510.0000  3953869    1.73%
  10700  9598      514.0000    65      519.0000      510.0000  3976359    1.73%
  10800  9696      510.0000    99      519.0000      510.0000  3999433    1.73%
  10900  9788      510.0000   101      519.0000      510.0000  4069091    1.73%
  11000  9885      511.0000    83      519.0000      510.0000  4082857    1.73%
Elapsed time = 5282.94 sec. (tree size = 257.10 MB, solutions = 31)
Nodefile size = 129.49 MB (94.66 MB after compression)
  11100  9985      511.0000    94      519.0000      510.0000  4098032    1.73%
  11200 10084      511.0000    89      519.0000      510.0000  4143377    1.73%
  11300 10184      517.0000    71      519.0000      510.0000  4145742    1.73%
  11400 10283      511.0000    84      519.0000      510.0000  4156801    1.73%
  11500 10383      511.0000    91      519.0000      510.0000  4193285    1.73%
  11600 10482      511.0000    85      519.0000      510.0000  4236749    1.73%
  11700 10582      511.0000    90      519.0000      510.0000  4302122    1.73%
  11800 10681      511.0000    86      519.0000      510.0000  4342085    1.73%
  11900 10781      511.0000    92      519.0000      510.0000  4370025    1.73%
  12000 10880      511.0000    87      519.0000      510.0000  4431171    1.73%
Elapsed time = 5827.94 sec. (tree size = 292.79 MB, solutions = 31)
Nodefile size = 164.90 MB (122.35 MB after compression)
  12100 10980      511.0000    90      519.0000      510.0000  4460754    1.73%
  12200 11079      511.0000    95      519.0000      510.0000  4510356    1.73%
  12300 11179      511.0000    80      519.0000      510.0000  4544978    1.73%
  12400 11278      511.0000    83      519.0000      510.0000  4588620    1.73%
  12500 11378      511.0000    92      519.0000      510.0000  4641021    1.73%
  12600 11477      511.0000    92      519.0000      510.0000  4693894    1.73%
  12700 11577      511.0000    90      519.0000      510.0000  4723378    1.73%
  12800 11676      511.0000    87      519.0000      510.0000  4756511    1.73%
  12900 11776      518.0000    43      519.0000      510.0000  4786758    1.73%
  13000 11875      511.0000    95      519.0000      510.0000  4802358    1.73%
Elapsed time = 6379.98 sec. (tree size = 330.14 MB, solutions = 31)
Nodefile size = 202.32 MB (152.06 MB after compression)
  13100 11975      511.0000    98      519.0000      510.0000  4826413    1.73%
  13200 12070      511.0000    92      519.0000      510.0000  4855857    1.73%
  13300 12170      511.0000    91      519.0000      510.0000  4906049    1.73%
  13400 12267      511.0000    87      519.0000      510.0000  4954400    1.73%
* 13451+11950                          518.0000      510.0000  4970986    1.54%
  13500 12000      511.0000    89      518.0000      510.0000  5011903    1.54%
  13600 12099      511.0000    86      518.0000      510.0000  5054477    1.54%
  13700 12199      511.0000    93      518.0000      510.0000  5096592    1.54%
  13800 12298      511.0000    94      518.0000      510.0000  5129426    1.54%
  13900 12398      511.0000    92      518.0000      510.0000  5171376    1.54%
  14000 12495      511.0000    88      518.0000      510.0000  5216040    1.54%
Elapsed time = 7028.03 sec. (tree size = 360.73 MB, solutions = 32)
Nodefile size = 233.61 MB (177.79 MB after compression)
  14100 12595      511.0000    83      518.0000      510.0000  5262452    1.54%
  14200 12694      511.0000    94      518.0000      510.0000  5320732    1.54%

Cover cuts applied:  2105
Mixed integer rounding cuts applied:  21
Gomory fractional cuts applied:  2

Solution pool: 32 solutions saved.

MIP - Time limit exceeded, integer feasible:  Objective = 5.1800000000e+002
Current MIP best bound = 5.1000000000e+002 (gap = 8, 1.54%)
Solution time = 7200.14 sec.  Iterations = 5333835  Nodes = 14242 (12735)


Incumbent solution
Variable Name           Solution Value
Cmax                        518.000000
X_1_32                        1.000000
X_2_9                         1.000000
X_3_32                        1.000000
X_4_47                        1.000000
X_5_23                        1.000000
X_6_45                        1.000000
X_7_27                        1.000000
X_8_13                        1.000000
X_9_43                        1.000000
X_10_9                        1.000000
X_11_20                       1.000000
X_12_22                       1.000000
X_13_12                       1.000000
X_14_10                       1.000000
X_15_7                        1.000000
X_16_17                       1.000000
X_17_7                        1.000000
X_18_31                       1.000000
X_19_29                       1.000000
X_20_43                       1.000000
X_21_10                       1.000000
X_22_46                       1.000000
X_23_45                       1.000000
X_24_42                       1.000000
X_25_22                       1.000000
X_26_36                       1.000000
X_27_37                       1.000000
X_28_44                       1.000000
X_29_7                        1.000000
X_30_9                        1.000000
X_31_32                       1.000000
X_32_47                       1.000000
X_33_47                       1.000000
X_34_50                       1.000000
X_35_39                       1.000000
X_36_50                       1.000000
X_37_11                       1.000000
X_38_8                        1.000000
X_39_18                       1.000000
X_40_15                       1.000000
X_41_32                       1.000000
X_42_1                        1.000000
X_43_43                       1.000000
X_44_16                       1.000000
X_45_19                       1.000000
X_46_24                       1.000000
X_47_17                       1.000000
X_48_13                       1.000000
X_49_35                       1.000000
X_50_28                       1.000000
X_51_10                       1.000000
X_52_29                       1.000000
X_53_43                       1.000000
X_54_20                       1.000000
X_55_5                        1.000000
X_56_18                       1.000000
X_57_39                       1.000000
X_58_41                       1.000000
X_59_21                       1.000000
X_60_2                        1.000000
X_61_47                       1.000000
X_62_2                        1.000000
X_63_5                        1.000000
X_64_22                       1.000000
X_65_29                       1.000000
X_66_41                       1.000000
X_67_2                        1.000000
X_68_29                       1.000000
X_69_11                       1.000000
X_70_48                       1.000000
X_71_46                       1.000000
X_72_9                        1.000000
X_73_1                        1.000000
X_74_18                       1.000000
X_75_37                       1.000000
X_76_15                       1.000000
X_77_32                       1.000000
X_78_24                       1.000000
X_79_48                       1.000000
X_80_26                       1.000000
X_81_50                       1.000000
X_82_36                       1.000000
X_83_13                       1.000000
X_84_34                       1.000000
X_85_3                        1.000000
X_86_17                       1.000000
X_87_29                       1.000000
X_88_27                       1.000000
X_89_6                        1.000000
X_90_24                       1.000000
X_91_35                       1.000000
X_92_22                       1.000000
X_93_48                       1.000000
X_94_33                       1.000000
X_95_16                       1.000000
X_96_8                        1.000000
X_97_18                       1.000000
X_98_14                       1.000000
X_99_11                       1.000000
X_100_46                      1.000000
X_101_13                      1.000000
X_102_37                      1.000000
X_103_33                      1.000000
X_104_46                      1.000000
X_105_25                      1.000000
X_106_28                      1.000000
X_107_22                      1.000000
X_108_1                       1.000000
X_109_4                       1.000000
X_110_50                      1.000000
X_111_33                      1.000000
X_112_20                      1.000000
X_113_20                      1.000000
X_114_6                       1.000000
X_115_42                      1.000000
X_116_6                       1.000000
X_117_18                      1.000000
X_118_28                      1.000000
X_119_47                      1.000000
X_120_32                      1.000000
X_121_27                      1.000000
X_122_16                      1.000000
X_123_43                      1.000000
X_124_44                      1.000000
X_125_20                      1.000000
X_126_26                      1.000000
X_127_18                      1.000000
X_128_46                      1.000000
X_129_41                      1.000000
X_130_24                      1.000000
X_131_32                      1.000000
X_132_45                      1.000000
X_133_39                      1.000000
X_134_22                      1.000000
X_135_34                      1.000000
X_136_21                      1.000000
X_137_36                      1.000000
X_138_10                      1.000000
X_139_36                      1.000000
X_140_19                      1.000000
X_141_13                      1.000000
X_142_7                       1.000000
X_143_32                      1.000000
X_144_8                       1.000000
X_145_4                       1.000000
X_146_27                      1.000000
X_147_14                      1.000000
X_148_14                      1.000000
X_149_3                       1.000000
X_150_38                      1.000000
X_151_44                      1.000000
X_152_32                      1.000000
X_153_40                      1.000000
X_154_10                      1.000000
X_155_35                      1.000000
X_156_49                      1.000000
X_157_38                      1.000000
X_158_13                      1.000000
X_159_20                      1.000000
X_160_15                      1.000000
X_161_30                      1.000000
X_162_8                       1.000000
X_163_38                      1.000000
X_164_4                       1.000000
X_165_25                      1.000000
X_166_12                      1.000000
X_167_41                      1.000000
X_168_17                      1.000000
X_169_40                      1.000000
X_170_19                      1.000000
X_171_44                      1.000000
X_172_35                      1.000000
X_173_35                      1.000000
X_174_17                      1.000000
X_175_15                      1.000000
X_176_1                       1.000000
X_177_31                      1.000000
X_178_11                      1.000000
X_179_50                      1.000000
X_180_38                      1.000000
X_181_5                       1.000000
X_182_34                      1.000000
X_183_26                      1.000000
X_184_33                      1.000000
X_185_26                      1.000000
X_186_9                       1.000000
X_187_27                      1.000000
X_188_20                      1.000000
X_189_27                      1.000000
X_190_1                       1.000000
X_191_16                      1.000000
X_192_13                      1.000000
X_193_7                       1.000000
X_194_14                      1.000000
X_195_10                      1.000000
X_196_50                      1.000000
X_197_30                      1.000000
X_198_24                      1.000000
X_199_35                      1.000000
X_200_49                      1.000000
X_201_39                      1.000000
X_202_31                      1.000000
X_203_43                      1.000000
X_204_38                      1.000000
X_205_44                      1.000000
X_206_15                      1.000000
X_207_20                      1.000000
X_208_2                       1.000000
X_209_12                      1.000000
X_210_22                      1.000000
X_211_5                       1.000000
X_212_13                      1.000000
X_213_44                      1.000000
X_214_15                      1.000000
X_215_39                      1.000000
X_216_36                      1.000000
X_217_49                      1.000000
X_218_12                      1.000000
X_219_16                      1.000000
X_220_33                      1.000000
X_221_22                      1.000000
X_222_21                      1.000000
X_223_5                       1.000000
X_224_26                      1.000000
X_225_11                      1.000000
X_226_46                      1.000000
X_227_31                      1.000000
X_228_40                      1.000000
X_229_34                      1.000000
X_230_19                      1.000000
X_231_10                      1.000000
X_232_48                      1.000000
X_233_23                      1.000000
X_234_34                      1.000000
X_235_30                      1.000000
X_236_33                      1.000000
X_237_47                      1.000000
X_238_26                      1.000000
X_239_44                      1.000000
X_240_44                      1.000000
X_241_28                      1.000000
X_242_42                      1.000000
X_243_47                      1.000000
X_244_5                       1.000000
X_245_35                      1.000000
X_246_12                      1.000000
X_247_47                      1.000000
X_248_25                      1.000000
X_249_40                      1.000000
X_250_22                      1.000000
X_251_17                      1.000000
X_252_50                      1.000000
X_253_12                      1.000000
X_254_18                      1.000000
X_255_41                      1.000000
X_256_3                       1.000000
X_257_7                       1.000000
X_258_14                      1.000000
X_259_36                      1.000000
X_260_16                      1.000000
X_261_42                      1.000000
X_262_23                      1.000000
X_263_1                       1.000000
X_264_28                      1.000000
X_265_2                       1.000000
X_266_41                      1.000000
X_267_31                      1.000000
X_268_39                      1.000000
X_269_48                      1.000000
X_270_31                      1.000000
X_271_31                      1.000000
X_272_44                      1.000000
X_273_13                      1.000000
X_274_30                      1.000000
X_275_41                      1.000000
X_276_7                       1.000000
X_277_28                      1.000000
X_278_34                      1.000000
X_279_24                      1.000000
X_280_24                      1.000000
X_281_45                      1.000000
X_282_35                      1.000000
X_283_35                      1.000000
X_284_5                       1.000000
X_285_16                      1.000000
X_286_3                       1.000000
X_287_12                      1.000000
X_288_10                      1.000000
X_289_13                      1.000000
X_290_4                       1.000000
X_291_45                      1.000000
X_292_46                      1.000000
X_293_38                      1.000000
X_294_25                      1.000000
X_295_11                      1.000000
X_296_8                       1.000000
X_297_1                       1.000000
X_298_14                      1.000000
X_299_40                      1.000000
X_300_26                      1.000000
X_301_13                      1.000000
X_302_6                       1.000000
X_303_43                      1.000000
X_304_1                       1.000000
X_305_41                      1.000000
X_306_42                      1.000000
X_307_31                      1.000000
X_308_6                       1.000000
X_309_29                      1.000000
X_310_6                       1.000000
X_311_30                      1.000000
X_312_41                      1.000000
X_313_33                      1.000000
X_314_7                       1.000000
X_315_25                      1.000000
X_316_48                      1.000000
X_317_49                      1.000000
X_318_45                      1.000000
X_319_34                      1.000000
X_320_4                       1.000000
X_321_38                      1.000000
X_322_35                      1.000000
X_323_5                       1.000000
X_324_8                       1.000000
X_325_37                      1.000000
X_326_16                      1.000000
X_327_4                       1.000000
X_328_24                      1.000000
X_329_42                      1.000000
X_330_45                      1.000000
X_331_21                      1.000000
X_332_43                      1.000000
X_333_4                       1.000000
X_334_49                      1.000000
X_335_42                      1.000000
X_336_19                      1.000000
X_337_16                      1.000000
X_338_42                      1.000000
X_339_18                      1.000000
X_340_43                      1.000000
X_341_11                      1.000000
X_342_28                      1.000000
X_343_19                      1.000000
X_344_38                      1.000000
X_345_40                      1.000000
X_346_13                      1.000000
X_347_17                      1.000000
X_348_5                       1.000000
X_349_48                      1.000000
X_350_3                       1.000000
X_351_2                       1.000000
X_352_48                      1.000000
X_353_5                       1.000000
X_354_3                       1.000000
X_355_24                      1.000000
X_356_37                      1.000000
X_357_21                      1.000000
X_358_43                      1.000000
X_359_40                      1.000000
X_360_38                      1.000000
X_361_15                      1.000000
X_362_33                      1.000000
X_363_32                      1.000000
X_364_24                      1.000000
X_365_28                      1.000000
X_366_50                      1.000000
X_367_36                      1.000000
X_368_9                       1.000000
X_369_40                      1.000000
X_370_23                      1.000000
X_371_33                      1.000000
X_372_26                      1.000000
X_373_6                       1.000000
X_374_25                      1.000000
X_375_6                       1.000000
X_376_1                       1.000000
X_377_16                      1.000000
X_378_10                      1.000000
X_379_16                      1.000000
X_380_2                       1.000000
X_381_36                      1.000000
X_382_48                      1.000000
X_383_13                      1.000000
X_384_6                       1.000000
X_385_47                      1.000000
X_386_39                      1.000000
X_387_2                       1.000000
X_388_17                      1.000000
X_389_13                      1.000000
X_390_48                      1.000000
X_391_29                      1.000000
X_392_34                      1.000000
X_393_37                      1.000000
X_394_34                      1.000000
X_395_17                      1.000000
X_396_7                       1.000000
X_397_7                       1.000000
X_398_21                      1.000000
X_399_29                      1.000000
X_400_10                      1.000000
X_401_33                      1.000000
X_402_1                       1.000000
X_403_19                      1.000000
X_404_39                      1.000000
X_405_43                      1.000000
X_406_43                      1.000000
X_407_15                      1.000000
X_408_18                      1.000000
X_409_16                      1.000000
X_410_50                      1.000000
X_411_3                       1.000000
X_412_24                      1.000000
X_413_30                      1.000000
X_414_23                      1.000000
X_415_4                       1.000000
X_416_32                      1.000000
X_417_37                      1.000000
X_418_47                      1.000000
X_419_49                      1.000000
X_420_21                      1.000000
X_421_8                       1.000000
X_422_31                      1.000000
X_423_29                      1.000000
X_424_14                      1.000000
X_425_26                      1.000000
X_426_23                      1.000000
X_427_50                      1.000000
X_428_48                      1.000000
X_429_18                      1.000000
X_430_45                      1.000000
X_431_46                      1.000000
X_432_8                       1.000000
X_433_25                      1.000000
X_434_27                      1.000000
X_435_39                      1.000000
X_436_47                      1.000000
X_437_30                      1.000000
X_438_35                      1.000000
X_439_43                      1.000000
X_440_5                       1.000000
X_441_4                       1.000000
X_442_40                      1.000000
X_443_41                      1.000000
X_444_49                      1.000000
X_445_45                      1.000000
X_446_30                      1.000000
X_447_9                       1.000000
X_448_25                      1.000000
X_449_17                      1.000000
X_450_19                      1.000000
X_451_31                      1.000000
X_452_50                      1.000000
X_453_37                      1.000000
X_454_9                       1.000000
X_455_44                      1.000000
X_456_1                       1.000000
X_457_45                      1.000000
X_458_30                      1.000000
X_459_36                      1.000000
X_460_6                       1.000000
X_461_23                      1.000000
X_462_49                      1.000000
X_463_48                      1.000000
X_464_20                      1.000000
X_465_11                      1.000000
X_466_45                      1.000000
X_467_38                      1.000000
X_468_1                       1.000000
X_469_14                      1.000000
X_470_38                      1.000000
X_471_20                      1.000000
X_472_2                       1.000000
X_473_12                      1.000000
X_474_49                      1.000000
X_475_27                      1.000000
X_476_15                      1.000000
X_477_43                      1.000000
X_478_2                       1.000000
X_479_6                       1.000000
X_480_30                      1.000000
X_481_13                      1.000000
X_482_22                      1.000000
X_483_42                      1.000000
X_484_17                      1.000000
X_485_21                      1.000000
X_486_43                      1.000000
X_487_5                       1.000000
X_488_33                      1.000000
X_489_17                      1.000000
X_490_21                      1.000000
X_491_22                      1.000000
X_492_40                      1.000000
X_493_23                      1.000000
X_494_27                      1.000000
X_495_16                      1.000000
X_496_42                      1.000000
X_497_4                       1.000000
X_498_15                      1.000000
X_499_5                       1.000000
X_500_41                      1.000000
All other variables in the range 1-25001 are 0.
